n=10; m= 10; 


50	64	65	18	46	68	59	29	36	46
71	60	46	5	20	49	31	26	12	20
45	88	89	13	26	57	83	33	38	26
17	82	88	4	45	56	53	38	46	45
74	72	30	86	29	45	83	11	29	29
62	82	50	57	14	78	91	4	28	14
17	37	14	14	36	76	3	37	34	36
29	92	47	41	32	81	40	28	17	32
82	49	28	45	44	58	44	9	19	44
74	72	30	86	29	45	83	11	29	29






